Route #1:
Route #2: 2
Route #3: 24
Route #4: 29 18 30 22 15 12 19 26 5
Route #5: 3 10 25
Route #6: 28 4 21 16
Route #7: 6 31 17 8 11 7 23
Route #8: 14
Route #9: 9 1 13
Route #10: 27
Route #11: 20

Cost: 2153.4040573671946
